NAME: ACTUAL_TOURS/amz1230
TYPE: TOUR
COMMENT: RouteID_82cdf17a-318a-41c7-a3df-fe1163cad9b9
DIMENSION: 179
TOUR_SECTION
12
148
55
23
40
18
165
42
19
130
76
2
71
139
74
32
75
133
36
172
85
79
1
111
69
129
156
146
149
136
83
94
43
97
47
39
176
99
145
115
169
116
95
30
20
10
102
110
140
3
119
174
87
22
28
56
109
96
124
160
141
178
78
170
158
16
59
177
104
13
122
48
73
44
49
161
153
33
128
35
57
90
147
179
107
118
54
62
117
53
143
152
163
101
131
92
113
37
61
17
8
106
171
134
6
4
41
162
67
45
51
72
21
68
125
166
7
164
86
84
121
108
112
138
93
38
150
65
26
5
157
50
159
15
14
60
27
77
114
58
63
105
80
81
126
135
142
91
151
70
168
155
89
11
100
64
66
82
154
98
103
123
34
132
167
144
9
52
88
137
25
29
31
24
127
175
120
46
173
-1
EOF
